
Gurobi 7.5.2 (linux64) logging started Wed Jan 17 11:21:51 2018

Academic license - for non-commercial use only

Gurobi Optimizer version 7.5.2 build v7.5.2rc1 (linux64)
Copyright (c) 2017, Gurobi Optimization, Inc.

Read LP format model from file contproblem.lp
Reading time = 0.01 seconds
: 111 rows, 118 columns, 888 nonzeros
Optimize a model with 111 rows, 118 columns and 888 nonzeros
Model has 111 quadratic objective terms
Coefficient statistics:
  Matrix range     [1e+00, 2e+07]
  Objective range  [0e+00, 0e+00]
  QObjective range [2e+00, 2e+00]
  Bounds range     [0e+00, 0e+00]
  RHS range        [1e+02, 2e+03]
Presolve removed 0 rows and 1 columns
Presolve time: 0.02s
Presolved: 111 rows, 117 columns, 777 nonzeros
Presolved model has 111 quadratic objective terms
Ordering time: 0.00s

Barrier statistics:
 Dense cols : 6
 AA' NZ     : 6.660e+02
 Factor NZ  : 7.980e+02
 Factor Ops : 5.530e+03 (less than 1 second per iteration)
 Threads    : 1

                  Objective                Residual
Iter       Primal          Dual         Primal    Dual     Compl     Time
   0   2.77529121e+07 -2.77529121e+07  5.66e+03 0.00e+00  9.97e+05     0s
   1   7.67146761e+06 -7.66231839e+06  1.72e+01 0.00e+00  1.32e+05     0s
   2   1.67533598e+06 -1.67124879e+06  1.29e+00 0.00e+00  2.87e+04     0s
   3   3.98842730e+05 -4.07804211e+05  6.31e-03 0.00e+00  6.90e+03     0s
   4   9.90851795e+04 -9.09431563e+04  6.31e-09 3.85e-08  1.62e+03     0s
   5   2.26989565e+04 -1.55260120e+04  6.66e-15 1.86e-09  3.27e+02     0s
   6   8.16141918e+03  8.21109340e+02  4.44e-16 4.51e-10  6.27e+01     0s
   7   6.11787743e+03  4.12893080e+03  4.44e-16 4.10e-09  1.70e+01     0s
   8   6.27785138e+03  4.90813086e+03  2.22e-16 1.57e-09  1.17e+01     0s
   9   5.99706853e+03  5.77259076e+03  4.44e-16 1.40e-10  1.92e+00     0s
  10   5.95716781e+03  5.94883320e+03  4.44e-16 8.15e-10  7.12e-02     0s
  11   5.95667545e+03  5.95666656e+03  5.55e-17 3.57e-10  7.60e-05     0s
  12   5.95667489e+03  5.95667488e+03  1.11e-16 1.45e-09  7.60e-08     0s
  13   5.95667489e+03  5.95667489e+03  1.11e-16 3.42e-10  7.60e-11     0s

Barrier solved model in 13 iterations and 0.03 seconds
Optimal objective 5.95667489e+03


Wrote result file 'max.sol'


Gurobi 7.5.2 (linux64) logging started Wed Jan 17 11:23:26 2018

Academic license - for non-commercial use only

Gurobi Optimizer version 7.5.2 build v7.5.2rc1 (linux64)
Copyright (c) 2017, Gurobi Optimization, Inc.

Read LP format model from file contproblem.lp
Reading time = 0.00 seconds
: 0 rows, 117 columns, 0 nonzeros
Optimize a model with 0 rows, 117 columns and 0 nonzeros
Model has 111 quadratic objective terms
Model has 111 quadratic constraints
Coefficient statistics:
  Matrix range     [0e+00, 0e+00]
  QMatrix range    [1e+00, 2e+07]
  QLMatrix range   [1e+00, 4e+03]
  Objective range  [0e+00, 0e+00]
  QObjective range [2e+00, 2e+00]
  Bounds range     [0e+00, 0e+00]
  RHS range        [0e+00, 0e+00]
  QRHS range       [1e+02, 2e+03]
Presolve time: 0.03s
Presolved: 445 rows, 452 columns, 1334 nonzeros
Presolved model has 112 second-order cone constraints
Ordering time: 0.00s

Barrier statistics:
 Dense cols : 7
 AA' NZ     : 1.333e+03
 Factor NZ  : 4.248e+03
 Factor Ops : 4.077e+04 (less than 1 second per iteration)
 Threads    : 1

                  Objective                Residual
Iter       Primal          Dual         Primal    Dual     Compl     Time
   0   2.50133247e-13  2.50133247e-13  1.02e+03 1.00e-01  1.24e+01     0s
   1   4.87705356e+01  4.60735857e+01  7.55e+02 2.53e-02  6.95e+00     0s
   2   3.36212015e+00 -5.47570796e+00  1.88e+01 3.81e-04  1.80e-01     0s
   3   7.72414915e-01 -3.96434840e+00  3.79e+00 1.62e-04  4.71e-02     0s
   4   1.08509014e-01 -1.12866242e+00  3.85e-03 1.33e-06  2.30e-03     0s
   5   1.83179095e-02 -1.24762798e-01  1.34e-05 1.05e-07  2.60e-04     0s
   6   8.98088206e-03 -5.48672869e-03  3.63e-08 1.70e-09  2.58e-05     0s
   7   3.64250403e-04 -5.67043907e-04  5.76e-09 1.11e-10  1.66e-06     0s
   8   1.60402000e-04 -1.55033580e-04  3.10e-09 2.95e-11  5.62e-07     0s
   9   1.49085724e-04 -8.29619722e-05  2.43e-10 6.30e-12  4.13e-07     0s
  10   2.05838132e-05 -2.45554166e-05  4.70e-11 2.11e-14  8.02e-08     0s
  11   1.11188998e-05 -6.10680715e-06  2.00e-11 8.32e-16  3.06e-08     0s
  12   2.01102385e-06 -1.47553871e-06  7.79e-12 1.63e-14  6.19e-09     0s
  13   3.94508309e-07 -3.12424539e-07  5.61e-12 8.12e-14  1.26e-09     0s

Barrier solved model in 13 iterations and 0.06 seconds
Optimal objective 3.94508309e-07


Wrote result file 'max.sol'


Gurobi 7.5.2 (linux64) logging started Wed Jan 17 11:23:50 2018

Academic license - for non-commercial use only

Gurobi Optimizer version 7.5.2 build v7.5.2rc1 (linux64)
Copyright (c) 2017, Gurobi Optimization, Inc.

Read LP format model from file contproblem.lp
Reading time = 0.00 seconds
: 111 rows, 118 columns, 888 nonzeros
Optimize a model with 111 rows, 118 columns and 888 nonzeros
Model has 111 quadratic objective terms
Coefficient statistics:
  Matrix range     [1e+00, 2e+07]
  Objective range  [0e+00, 0e+00]
  QObjective range [2e+00, 2e+00]
  Bounds range     [0e+00, 0e+00]
  RHS range        [1e+02, 2e+03]
Presolve removed 0 rows and 1 columns
Presolve time: 0.00s
Presolved: 111 rows, 117 columns, 777 nonzeros
Presolved model has 111 quadratic objective terms
Ordering time: 0.00s

Barrier statistics:
 Dense cols : 6
 AA' NZ     : 6.660e+02
 Factor NZ  : 7.980e+02
 Factor Ops : 5.530e+03 (less than 1 second per iteration)
 Threads    : 1

                  Objective                Residual
Iter       Primal          Dual         Primal    Dual     Compl     Time
   0   2.77529121e+07 -2.77529121e+07  5.66e+03 0.00e+00  9.97e+05     0s
   1   7.67146761e+06 -7.66231839e+06  1.72e+01 0.00e+00  1.32e+05     0s
   2   1.67533598e+06 -1.67124879e+06  1.29e+00 0.00e+00  2.87e+04     0s
   3   3.98842730e+05 -4.07804211e+05  6.31e-03 0.00e+00  6.90e+03     0s
   4   9.90851795e+04 -9.09431563e+04  6.31e-09 3.85e-08  1.62e+03     0s
   5   2.26989565e+04 -1.55260120e+04  6.66e-15 1.86e-09  3.27e+02     0s
   6   8.16141918e+03  8.21109340e+02  4.44e-16 4.51e-10  6.27e+01     0s
   7   6.11787743e+03  4.12893080e+03  4.44e-16 4.10e-09  1.70e+01     0s
   8   6.27785138e+03  4.90813086e+03  2.22e-16 1.57e-09  1.17e+01     0s
   9   5.99706853e+03  5.77259076e+03  4.44e-16 1.40e-10  1.92e+00     0s
  10   5.95716781e+03  5.94883320e+03  4.44e-16 8.15e-10  7.12e-02     0s
  11   5.95667545e+03  5.95666656e+03  5.55e-17 3.57e-10  7.60e-05     0s
  12   5.95667489e+03  5.95667488e+03  1.11e-16 1.45e-09  7.60e-08     0s
  13   5.95667489e+03  5.95667489e+03  1.11e-16 3.42e-10  7.60e-11     0s

Barrier solved model in 13 iterations and 0.00 seconds
Optimal objective 5.95667489e+03


Wrote result file 'max.sol'


Gurobi 7.5.2 (linux64) logging started Wed Jan 17 11:28:33 2018

Academic license - for non-commercial use only

Gurobi Optimizer version 7.5.2 build v7.5.2rc1 (linux64)
Copyright (c) 2017, Gurobi Optimization, Inc.

Read LP format model from file contproblem.lp
Reading time = 0.00 seconds
: 0 rows, 117 columns, 0 nonzeros
Optimize a model with 0 rows, 117 columns and 0 nonzeros
Model has 111 quadratic objective terms
Model has 111 quadratic constraints
Coefficient statistics:
  Matrix range     [0e+00, 0e+00]
  QMatrix range    [1e+00, 2e+07]
  QLMatrix range   [1e+00, 4e+03]
  Objective range  [0e+00, 0e+00]
  QObjective range [2e+00, 2e+00]
  Bounds range     [0e+00, 0e+00]
  RHS range        [0e+00, 0e+00]
  QRHS range       [1e+02, 2e+03]
Presolve time: 0.00s
Presolved: 445 rows, 452 columns, 1334 nonzeros
Presolved model has 112 second-order cone constraints
Ordering time: 0.00s

Barrier statistics:
 Dense cols : 7
 AA' NZ     : 1.333e+03
 Factor NZ  : 4.248e+03
 Factor Ops : 4.077e+04 (less than 1 second per iteration)
 Threads    : 1

                  Objective                Residual
Iter       Primal          Dual         Primal    Dual     Compl     Time
   0   2.50133247e-13  2.50133247e-13  1.02e+03 1.00e-01  1.24e+01     0s
   1   4.87705356e+01  4.60735857e+01  7.55e+02 2.53e-02  6.95e+00     0s
   2   3.36212015e+00 -5.47570796e+00  1.88e+01 3.81e-04  1.80e-01     0s
   3   7.72414915e-01 -3.96434840e+00  3.79e+00 1.62e-04  4.71e-02     0s
   4   1.08509014e-01 -1.12866242e+00  3.85e-03 1.33e-06  2.30e-03     0s
   5   1.83179095e-02 -1.24762798e-01  1.34e-05 1.05e-07  2.60e-04     0s
   6   8.98088206e-03 -5.48672869e-03  3.63e-08 1.70e-09  2.58e-05     0s
   7   3.64250403e-04 -5.67043907e-04  5.76e-09 1.11e-10  1.66e-06     0s
   8   1.60402000e-04 -1.55033580e-04  3.10e-09 2.95e-11  5.62e-07     0s
   9   1.49085724e-04 -8.29619722e-05  2.43e-10 6.30e-12  4.13e-07     0s
  10   2.05838132e-05 -2.45554166e-05  4.70e-11 2.11e-14  8.02e-08     0s
  11   1.11188998e-05 -6.10680715e-06  2.00e-11 8.32e-16  3.06e-08     0s
  12   2.01102385e-06 -1.47553871e-06  7.79e-12 1.63e-14  6.19e-09     0s
  13   3.94508309e-07 -3.12424539e-07  5.61e-12 8.12e-14  1.26e-09     0s

Barrier solved model in 13 iterations and 0.01 seconds
Optimal objective 3.94508309e-07


Wrote result file 'max.sol'


Gurobi 7.5.2 (linux64) logging started Wed Jan 17 11:39:18 2018

Academic license - for non-commercial use only

Gurobi Optimizer version 7.5.2 build v7.5.2rc1 (linux64)
Copyright (c) 2017, Gurobi Optimization, Inc.

Read LP format model from file contproblem.lp
Reading time = 0.00 seconds
: 0 rows, 117 columns, 0 nonzeros
Optimize a model with 0 rows, 117 columns and 0 nonzeros
Model has 111 quadratic objective terms
Model has 112 quadratic constraints
Coefficient statistics:
  Matrix range     [0e+00, 0e+00]
  QMatrix range    [1e+00, 2e+07]
  QLMatrix range   [1e+00, 4e+03]
  Objective range  [0e+00, 0e+00]
  QObjective range [2e+00, 2e+00]
  Bounds range     [0e+00, 0e+00]
  RHS range        [0e+00, 0e+00]
  QRHS range       [1e+02, 2e+03]

ERROR 10020: Constraint Q not PSD (diagonal adjustment of 1.6e+07 would be required)


Gurobi 7.5.2 (linux64) logging started Wed Jan 17 11:39:20 2018

Academic license - for non-commercial use only

Gurobi Optimizer version 7.5.2 build v7.5.2rc1 (linux64)
Copyright (c) 2017, Gurobi Optimization, Inc.

Read LP format model from file contproblem.lp
Reading time = 0.00 seconds
: 0 rows, 117 columns, 0 nonzeros
Optimize a model with 0 rows, 117 columns and 0 nonzeros
Model has 111 quadratic objective terms
Model has 112 quadratic constraints
Coefficient statistics:
  Matrix range     [0e+00, 0e+00]
  QMatrix range    [1e+00, 2e+07]
  QLMatrix range   [1e+00, 4e+03]
  Objective range  [0e+00, 0e+00]
  QObjective range [2e+00, 2e+00]
  Bounds range     [0e+00, 0e+00]
  RHS range        [0e+00, 0e+00]
  QRHS range       [1e+02, 2e+03]

ERROR 10020: Constraint Q not PSD (diagonal adjustment of 1.6e+07 would be required)

